words_hard_train/2231.qaiger
aag 206 31 0 1 175
2
4
12
20
28
36
48
56
68
76
88
96
108
116
128
130
138
146
154
162
174
182
194
202
214
222
234
242
260
274
276
413
6 2 4
8 3 5
10 7 9
14 11 13
16 10 12
18 15 17
22 20 2
24 18 22
26 25 17
30 9 28
32 8 29
34 31 33
38 35 37
40 34 36
42 39 41
44 27 42
46 45 41
50 33 48
52 32 49
54 51 53
58 55 57
60 54 56
62 59 61
64 47 62
66 65 61
70 53 68
72 52 69
74 71 73
78 75 77
80 74 76
82 79 81
84 67 82
86 85 81
90 73 88
92 72 89
94 91 93
98 95 97
100 94 96
102 99 101
104 87 102
106 105 101
110 93 108
112 92 109
114 111 113
118 115 117
120 114 116
122 119 121
124 107 122
126 125 121
132 128 130
134 129 131
136 133 135
140 137 139
142 136 138
144 141 143
148 146 128
150 144 148
152 151 143
156 135 154
158 134 155
160 157 159
164 161 163
166 160 162
168 165 167
170 153 168
172 171 167
176 159 174
178 158 175
180 177 179
184 181 183
186 180 182
188 185 187
190 173 188
192 191 187
196 179 194
198 178 195
200 197 199
204 201 203
206 200 202
208 205 207
210 193 208
212 211 207
216 199 214
218 198 215
220 217 219
224 221 223
226 220 222
228 225 227
230 213 228
232 231 227
236 219 234
238 218 235
240 237 239
244 241 243
246 240 242
248 245 247
250 233 248
252 251 247
254 127 253
256 126 252
258 255 257
262 260 116
264 261 117
266 263 265
268 266 113
270 267 112
272 269 271
278 274 276
280 275 277
282 279 281
284 282 239
286 283 238
288 285 287
290 273 288
292 272 289
294 291 293
296 259 295
298 86 103
300 299 105
302 212 229
304 303 231
306 301 304
308 300 305
310 307 309
312 106 123
314 313 125
316 232 249
318 317 251
320 315 318
322 310 321
324 46 63
326 325 65
328 172 189
330 329 191
332 327 330
334 326 331
336 333 335
338 66 83
340 339 85
342 192 209
344 343 211
346 341 344
348 336 347
350 26 43
352 351 45
354 152 169
356 355 171
358 353 356
360 352 357
362 359 361
364 19 23
366 365 25
368 145 149
370 369 151
372 367 371
374 366 370
376 373 375
378 21 3
380 379 23
382 147 129
384 383 149
386 380 385
388 381 384
390 387 389
392 377 390
394 362 392
396 340 345
398 394 397
400 348 398
402 314 319
404 400 403
406 322 404
408 297 406
410 258 294
412 408 411
i0 1 x1[0]
i1 1 x1[1]
i2 2 y2[2]
i3 2 y2[1]
i4 1 x1[2]
i5 2 y2[3]
i6 1 x1[3]
i7 2 y2[4]
i8 1 x1[4]
i9 2 y2[5]
i10 1 x1[5]
i11 2 y2[6]
i12 1 x1[6]
i13 2 y2[7]
i14 1 x2[0]
i15 1 x2[1]
i16 2 y1[1]
i17 2 y1[0]
i18 1 x2[2]
i19 2 y1[2]
i20 1 x2[3]
i21 2 y1[3]
i22 1 x2[4]
i23 2 y1[4]
i24 1 x2[5]
i25 2 y1[5]
i26 1 x2[6]
i27 2 y1[6]
i28 1 x1[7]
i29 2 y1[7]
i30 1 x2[7]
o0 bool[0]
c
simplified
  !=
    subtract
      2 y1
      1 x2
    subtract
      >> 1
        2 y2
      1 x1
