words_hard_train/2231.qaiger.qdimacs
p cnf 206 526
a 64 1 2 34 65 97 130 138 107 44 77 14 117 54 87 24 0
e 3 4 5 6 7 8 9 10 11 12 13 15 16 17 18 19 20 21 22 23 25 26 27 28 29 30 31 32 33 35 36 37 38 39 40 41 42 43 45 46 47 48 49 50 51 52 53 55 56 57 58 59 60 61 62 63 66 67 68 69 70 71 72 73 74 75 76 78 79 80 81 82 83 84 85 86 88 89 90 91 92 93 94 95 96 98 99 100 101 102 103 104 105 106 108 109 110 111 112 113 114 115 116 118 119 120 121 122 123 124 125 126 127 128 129 131 132 133 134 135 136 137 139 140 141 142 143 144 145 146 147 148 149 150 151 152 153 154 155 156 157 158 159 160 161 162 163 164 165 166 167 168 169 170 171 172 173 174 175 176 177 178 179 180 181 182 183 184 185 186 187 188 189 190 191 192 193 194 195 196 197 198 199 200 201 202 203 204 205 206 0
-1 -2 3 0
1 -3 0
2 -3 0
1 2 4 0
-1 -4 0
-2 -4 0
3 4 5 0
-3 -5 0
-4 -5 0
5 6 7 0
-5 -7 0
-6 -7 0
-5 -6 8 0
5 -8 0
6 -8 0
7 8 9 0
-7 -9 0
-8 -9 0
-10 -1 11 0
10 -11 0
1 -11 0
-9 -11 12 0
9 -12 0
11 -12 0
12 8 13 0
-12 -13 0
-8 -13 0
4 -14 15 0
-4 -15 0
14 -15 0
-4 14 16 0
4 -16 0
-14 -16 0
15 16 17 0
-15 -17 0
-16 -17 0
17 18 19 0
-17 -19 0
-18 -19 0
-17 -18 20 0
17 -20 0
18 -20 0
19 20 21 0
-19 -21 0
-20 -21 0
13 -21 22 0
-13 -22 0
21 -22 0
22 20 23 0
-22 -23 0
-20 -23 0
16 -24 25 0
-16 -25 0
24 -25 0
-16 24 26 0
16 -26 0
-24 -26 0
25 26 27 0
-25 -27 0
-26 -27 0
27 28 29 0
-27 -29 0
-28 -29 0
-27 -28 30 0
27 -30 0
28 -30 0
29 30 31 0
-29 -31 0
-30 -31 0
23 -31 32 0
-23 -32 0
31 -32 0
32 30 33 0
-32 -33 0
-30 -33 0
26 -34 35 0
-26 -35 0
34 -35 0
-26 34 36 0
26 -36 0
-34 -36 0
35 36 37 0
-35 -37 0
-36 -37 0
37 38 39 0
-37 -39 0
-38 -39 0
-37 -38 40 0
37 -40 0
38 -40 0
39 40 41 0
-39 -41 0
-40 -41 0
33 -41 42 0
-33 -42 0
41 -42 0
42 40 43 0
-42 -43 0
-40 -43 0
36 -44 45 0
-36 -45 0
44 -45 0
-36 44 46 0
36 -46 0
-44 -46 0
45 46 47 0
-45 -47 0
-46 -47 0
47 48 49 0
-47 -49 0
-48 -49 0
-47 -48 50 0
47 -50 0
48 -50 0
49 50 51 0
-49 -51 0
-50 -51 0
43 -51 52 0
-43 -52 0
51 -52 0
52 50 53 0
-52 -53 0
-50 -53 0
46 -54 55 0
-46 -55 0
54 -55 0
-46 54 56 0
46 -56 0
-54 -56 0
55 56 57 0
-55 -57 0
-56 -57 0
57 58 59 0
-57 -59 0
-58 -59 0
-57 -58 60 0
57 -60 0
58 -60 0
59 60 61 0
-59 -61 0
-60 -61 0
53 -61 62 0
-53 -62 0
61 -62 0
62 60 63 0
-62 -63 0
-60 -63 0
-64 -65 66 0
64 -66 0
65 -66 0
64 65 67 0
-64 -67 0
-65 -67 0
66 67 68 0
-66 -68 0
-67 -68 0
68 69 70 0
-68 -70 0
-69 -70 0
-68 -69 71 0
68 -71 0
69 -71 0
70 71 72 0
-70 -72 0
-71 -72 0
-73 -64 74 0
73 -74 0
64 -74 0
-72 -74 75 0
72 -75 0
74 -75 0
75 71 76 0
-75 -76 0
-71 -76 0
67 -77 78 0
-67 -78 0
77 -78 0
-67 77 79 0
67 -79 0
-77 -79 0
78 79 80 0
-78 -80 0
-79 -80 0
80 81 82 0
-80 -82 0
-81 -82 0
-80 -81 83 0
80 -83 0
81 -83 0
82 83 84 0
-82 -84 0
-83 -84 0
76 -84 85 0
-76 -85 0
84 -85 0
85 83 86 0
-85 -86 0
-83 -86 0
79 -87 88 0
-79 -88 0
87 -88 0
-79 87 89 0
79 -89 0
-87 -89 0
88 89 90 0
-88 -90 0
-89 -90 0
90 91 92 0
-90 -92 0
-91 -92 0
-90 -91 93 0
90 -93 0
91 -93 0
92 93 94 0
-92 -94 0
-93 -94 0
86 -94 95 0
-86 -95 0
94 -95 0
95 93 96 0
-95 -96 0
-93 -96 0
89 -97 98 0
-89 -98 0
97 -98 0
-89 97 99 0
89 -99 0
-97 -99 0
98 99 100 0
-98 -100 0
-99 -100 0
100 101 102 0
-100 -102 0
-101 -102 0
-100 -101 103 0
100 -103 0
101 -103 0
102 103 104 0
-102 -104 0
-103 -104 0
96 -104 105 0
-96 -105 0
104 -105 0
105 103 106 0
-105 -106 0
-103 -106 0
99 -107 108 0
-99 -108 0
107 -108 0
-99 107 109 0
99 -109 0
-107 -109 0
108 109 110 0
-108 -110 0
-109 -110 0
110 111 112 0
-110 -112 0
-111 -112 0
-110 -111 113 0
110 -113 0
111 -113 0
112 113 114 0
-112 -114 0
-113 -114 0
106 -114 115 0
-106 -115 0
114 -115 0
115 113 116 0
-115 -116 0
-113 -116 0
109 -117 118 0
-109 -118 0
117 -118 0
-109 117 119 0
109 -119 0
-117 -119 0
118 119 120 0
-118 -120 0
-119 -120 0
120 121 122 0
-120 -122 0
-121 -122 0
-120 -121 123 0
120 -123 0
121 -123 0
122 123 124 0
-122 -124 0
-123 -124 0
116 -124 125 0
-116 -125 0
124 -125 0
125 123 126 0
-125 -126 0
-123 -126 0
63 126 127 0
-63 -127 0
-126 -127 0
-63 -126 128 0
63 -128 0
126 -128 0
127 128 129 0
-127 -129 0
-128 -129 0
-130 -58 131 0
130 -131 0
58 -131 0
130 58 132 0
-130 -132 0
-58 -132 0
131 132 133 0
-131 -133 0
-132 -133 0
-133 56 134 0
133 -134 0
-56 -134 0
133 -56 135 0
-133 -135 0
56 -135 0
134 135 136 0
-134 -136 0
-135 -136 0
-137 -138 139 0
137 -139 0
138 -139 0
137 138 140 0
-137 -140 0
-138 -140 0
139 140 141 0
-139 -141 0
-140 -141 0
-141 119 142 0
141 -142 0
-119 -142 0
141 -119 143 0
-141 -143 0
119 -143 0
142 143 144 0
-142 -144 0
-143 -144 0
136 -144 145 0
-136 -145 0
144 -145 0
-136 144 146 0
136 -146 0
-144 -146 0
145 146 147 0
-145 -147 0
-146 -147 0
129 147 148 0
-129 -148 0
-147 -148 0
-43 51 149 0
43 -149 0
-51 -149 0
149 52 150 0
-149 -150 0
-52 -150 0
-106 114 151 0
106 -151 0
-114 -151 0
151 115 152 0
-151 -152 0
-115 -152 0
150 -152 153 0
-150 -153 0
152 -153 0
-150 152 154 0
150 -154 0
-152 -154 0
153 154 155 0
-153 -155 0
-154 -155 0
-53 61 156 0
53 -156 0
-61 -156 0
156 62 157 0
-156 -157 0
-62 -157 0
-116 124 158 0
116 -158 0
-124 -158 0
158 125 159 0
-158 -159 0
-125 -159 0
157 -159 160 0
-157 -160 0
159 -160 0
-155 160 161 0
155 -161 0
-160 -161 0
-23 31 162 0
23 -162 0
-31 -162 0
162 32 163 0
-162 -163 0
-32 -163 0
-86 94 164 0
86 -164 0
-94 -164 0
164 95 165 0
-164 -165 0
-95 -165 0
163 -165 166 0
-163 -166 0
165 -166 0
-163 165 167 0
163 -167 0
-165 -167 0
166 167 168 0
-166 -168 0
-167 -168 0
-33 41 169 0
33 -169 0
-41 -169 0
169 42 170 0
-169 -170 0
-42 -170 0
-96 104 171 0
96 -171 0
-104 -171 0
171 105 172 0
-171 -172 0
-105 -172 0
170 -172 173 0
-170 -173 0
172 -173 0
-168 173 174 0
168 -174 0
-173 -174 0
-13 21 175 0
13 -175 0
-21 -175 0
175 22 176 0
-175 -176 0
-22 -176 0
-76 84 177 0
76 -177 0
-84 -177 0
177 85 178 0
-177 -178 0
-85 -178 0
176 -178 179 0
-176 -179 0
178 -179 0
-176 178 180 0
176 -180 0
-178 -180 0
179 180 181 0
-179 -181 0
-180 -181 0
9 11 182 0
-9 -182 0
-11 -182 0
182 12 183 0
-182 -183 0
-12 -183 0
72 74 184 0
-72 -184 0
-74 -184 0
184 75 185 0
-184 -185 0
-75 -185 0
183 185 186 0
-183 -186 0
-185 -186 0
-183 -185 187 0
183 -187 0
185 -187 0
186 187 188 0
-186 -188 0
-187 -188 0
10 1 189 0
-10 -189 0
-1 -189 0
189 11 190 0
-189 -190 0
-11 -190 0
73 64 191 0
-73 -191 0
-64 -191 0
191 74 192 0
-191 -192 0
-74 -192 0
-190 192 193 0
190 -193 0
-192 -193 0
190 -192 194 0
-190 -194 0
192 -194 0
193 194 195 0
-193 -195 0
-194 -195 0
188 -195 196 0
-188 -196 0
195 -196 0
-181 -196 197 0
181 -197 0
196 -197 0
-170 172 198 0
170 -198 0
-172 -198 0
-197 198 199 0
197 -199 0
-198 -199 0
-174 -199 200 0
174 -200 0
199 -200 0
-157 159 201 0
157 -201 0
-159 -201 0
-200 201 202 0
200 -202 0
-201 -202 0
-161 -202 203 0
161 -203 0
202 -203 0
148 -203 204 0
-148 -204 0
203 -204 0
-129 -147 205 0
129 -205 0
147 -205 0
-204 205 206 0
204 -206 0
-205 -206 0
-206 0
